num_images = 30;
universe = 351;
images = [{1, 2, 3, 4, 5, 6, 7, 8, 9, 10, 11, 12, 13, 14, 15, 16, 17, 18, 19, 20, 21, 22, 23, 24, 25, 26, 27, 28, 29, 30, 31, 32, 34, 36, 38, 40, 42, 44, 46, 48, 50, 52, 54, 56, 58, 60, 62, 64, 66, 68, 70, 72, 75, 76, 77, 78, 112, 113, 114, 115, 116, 117, 118, 119, 120, 121, 122, 123, 124, 125, 126, 127, 128, 129, 130, 131, 132, 147, 148, 149, 150, 151, 152, 153, 154, 155, 156, 157, 158, 159, 160, 161, 162, 163, 164, 165, 166, 167, 168, 169, 170, 171, 172, 173, 174, 175, 176, 177, 178, 179, 180, 181, 182, 183, 184, 185, 186, 187, 188, 189, 190, 191, 192, 193, 194, 195, 196, 197, 198, 208, 209, 210, 211, 212, 213, 214, 215, 216, 217, 218, 219, 220, 221, 222, 223, 224, 225, 226, 227, 228, 229, 230, 231, 238, 239, 240, 241, 242, 243, 244, 245, 246, 247, 248, 249, 250, 251, 278, 279, 280, 281, 298, 299, 300, 307, 309, 310, 311, 312, 313, 314, 315, 316, 317, 318, 323, 324, 325, 328, 329, 330, 331, 332, 333, 334, 335, 336, 337, 339, 344}, {128, 1, 2, 130, 135, 136, 137, 138, 139, 140, 141, 142, 143, 144, 145, 146, 147, 148, 149, 150, 151, 54, 55, 56, 57, 58, 59, 60, 61, 62, 63, 64, 65, 66, 67, 68, 69, 70, 71, 72, 73, 74, 75, 77, 206, 79, 207, 81, 338, 83, 85, 87, 89, 91, 93, 95, 97, 99, 101, 104, 106, 108, 110, 111, 112, 114, 116, 118, 120, 122, 124, 126}, {8, 9, 10, 11, 12, 13, 14, 15, 16, 17, 18, 19, 20, 21, 22, 34, 35, 36, 37, 38, 39, 40, 41, 42, 43, 44, 45, 46, 47, 48, 49, 50, 51, 52, 53, 54, 55, 56, 57, 58, 59, 75, 76, 77, 78, 79, 80, 81, 82, 83, 84, 85, 86, 87, 88, 89, 90, 91, 92, 120, 121, 122, 123, 124, 125, 126, 127, 128, 129, 130, 131, 132, 133, 135, 136, 138, 139, 140, 142, 144, 148, 150, 152, 153, 155, 157, 159, 161, 163, 165, 167, 168, 170, 172, 174, 176, 178, 180, 182, 184, 185, 186, 187, 188, 189, 190, 191, 192, 193, 194, 195, 196, 197, 198, 199, 200, 201, 202, 203, 204, 205, 208, 209, 210, 211, 212, 213, 214, 215, 216, 217, 218, 219, 220, 221, 222, 223, 224, 225, 226, 227, 228, 229, 230, 231, 232, 233, 234, 235, 236, 237, 238, 239, 240, 241, 242, 243, 244, 245, 246, 247, 278, 279, 280, 281, 301, 302, 303, 307, 309, 310, 311, 312, 313, 314, 315, 316, 317, 318, 323, 324, 325, 326, 327, 328, 329, 330, 331, 332, 333, 334, 335, 336, 337, 339, 340, 341, 342, 344, 345}, {193, 197, 7, 8, 9, 10, 11, 12, 13, 14, 15, 16, 17, 18, 185, 187, 189}, {12, 13, 14, 15, 16, 17, 18, 19, 20, 21, 48, 49, 50, 51, 52, 53, 54, 55, 56, 57, 75, 76, 77, 78, 79, 80, 81, 82, 83, 84, 128, 129, 130, 131, 140, 141, 142, 143, 144, 145, 146, 185, 186, 187, 188, 189, 190, 191, 192, 193, 194, 195, 197, 198, 199, 200, 202, 204, 208, 210, 212, 214, 216, 218, 220, 223, 224, 225, 226, 228, 230, 232, 234, 235, 237, 238, 239, 240, 278, 279, 280, 281, 301, 302, 307, 326, 327, 336, 337, 340, 341, 342, 345}, {9, 10, 11, 12, 13, 14, 15, 16, 17, 18, 19, 20, 21, 22, 23, 280, 281, 279, 157, 158, 159, 160, 161, 162, 163, 164, 165, 166, 168, 169, 170, 171, 185, 186, 187, 188, 189, 190, 191, 192, 193, 194, 195, 196, 197, 198, 328, 329, 330, 331, 336, 337, 210, 339, 211, 212, 213, 214, 215, 216, 217, 218, 219, 220, 221, 222, 223, 224, 238, 239, 241, 243, 245, 247, 249, 250}, {256, 258, 260, 262, 264, 267, 269, 270, 271, 272, 274, 276, 321, 322, 346, 99, 101, 102, 252, 254}, {2, 3, 4, 5, 6, 7, 8, 9, 10, 11, 12, 13, 14, 15, 16, 17, 18, 19, 75, 76, 112, 113, 114, 115, 116, 117, 118, 119, 120, 121, 122, 123, 124, 125, 126, 127, 128, 129, 130, 131, 147, 148, 149, 150, 151, 152, 153, 154, 155, 156, 157, 158, 159, 160, 161, 162, 163, 164, 165, 166, 167, 185, 186, 187, 188, 189, 190, 191, 192, 193, 194, 195, 196, 197, 198, 208, 209, 210, 211, 212, 213, 214, 215, 216, 217, 218, 219, 220, 221, 222, 239, 240, 241, 242, 243, 244, 245, 246, 247, 248, 249, 250, 278, 281, 307, 328, 329, 330, 331, 336, 337, 339}, {288, 290, 291, 292, 293, 294, 296, 308, 252, 254, 348, 282, 347, 284, 253, 286, 255}, {18, 19, 20, 21, 22, 279, 23, 24, 26, 27, 28, 29, 25, 168, 169, 298, 299, 300, 197, 198, 223, 251}, {1, 2, 3, 4, 5, 6, 7, 8, 9, 74, 165, 166, 167, 249, 250}, {1, 2, 3, 52, 53, 54, 55, 56, 57, 58, 59, 60, 61, 62, 63, 64, 65, 66, 67, 68, 69, 70, 71, 72, 73, 74, 75, 76, 77, 78, 79, 80, 81, 82, 83, 84, 85, 86, 87, 88, 89, 90, 91, 92, 93, 94, 95, 96, 97, 98, 99, 100, 101, 102, 103, 104, 105, 106, 107, 108, 109, 110, 111, 112, 113, 114, 115, 116, 117, 118, 119, 120, 121, 122, 123, 124, 125, 126, 127, 128, 129, 130, 131, 135, 136, 137, 138, 139, 140, 141, 142, 143, 144, 145, 146, 147, 148, 149, 150, 151, 152, 206, 207, 338}, {291, 292, 293}, {31, 32, 33, 34, 35, 36, 37, 38, 39, 40, 41, 42, 43, 44, 45, 46, 47, 48, 49, 50, 51, 52, 53, 54, 55, 75, 76, 77, 78, 79, 80, 81, 82, 83, 84, 85, 86, 87, 88, 89, 90, 91, 92, 93, 94, 95, 96, 97, 98, 99, 100, 101, 102, 103, 130, 131, 132, 133, 134, 199, 200, 201, 202, 203, 204, 205, 228, 229, 230, 231, 232, 233, 234, 235, 236, 237, 264, 265, 266, 267, 268, 278, 301, 302, 303, 304, 307, 310, 312, 314, 316, 318, 323, 324, 325, 326, 327, 340, 341, 342, 344, 345}, {256, 257, 272, 273, 274, 275, 276, 277, 282, 283, 284, 285, 286, 287, 288, 289, 290, 291, 292, 293, 294, 295, 296, 297, 308, 347, 348, 252, 253, 254, 255}, {11, 12, 13, 14, 15, 16, 17, 18, 19, 20, 21, 22, 23, 24, 36, 37, 38, 39, 40, 41, 42, 43, 44, 45, 46, 47, 48, 49, 50, 51, 52, 53, 54, 55, 56, 57, 58, 59, 60, 61, 75, 76, 77, 78, 79, 80, 81, 82, 122, 123, 124, 125, 126, 127, 128, 129, 130, 131, 142, 143, 144, 145, 146, 147, 168, 169, 170, 171, 172, 173, 185, 186, 187, 188, 189, 190, 191, 192, 193, 194, 195, 196, 197, 198, 206, 207, 208, 209, 210, 211, 212, 213, 214, 215, 216, 217, 218, 219, 220, 221, 222, 223, 224, 225, 226, 227, 228, 229, 230, 231, 232, 233, 234, 235, 236, 237, 238, 239, 240, 241, 242, 243, 244, 251, 278, 279, 280, 281, 301, 302, 307, 309, 310, 311, 312, 313, 314, 315, 323, 325, 326, 327, 328, 329, 331, 332, 336, 337, 339, 340, 341, 342, 344, 345}, {6, 7, 8, 9, 10, 11, 12, 13, 14, 15, 16, 17, 18, 19, 20, 279, 280, 163, 164, 165, 166, 167, 185, 186, 187, 188, 189, 190, 191, 192, 193, 194, 195, 196, 197, 198, 336, 222}, {16, 17, 18, 19, 20, 21, 22, 23, 24, 25, 26, 27, 28, 40, 41, 42, 43, 44, 45, 46, 47, 48, 49, 50, 51, 52, 53, 54, 55, 56, 57, 58, 59, 60, 61, 62, 63, 64, 65, 66, 67, 68, 69, 73, 75, 76, 77, 78, 79, 80, 81, 82, 83, 84, 85, 86, 87, 88, 116, 117, 118, 119, 120, 121, 122, 123, 124, 125, 126, 127, 128, 129, 130, 131, 138, 139, 140, 141, 142, 143, 144, 145, 146, 147, 148, 149, 150, 151, 152, 153, 154, 168, 169, 170, 171, 172, 173, 174, 175, 176, 177, 178, 179, 180, 181, 182, 183, 185, 186, 187, 188, 197, 198, 200, 201, 202, 203, 204, 205, 206, 207, 208, 209, 210, 211, 212, 213, 214, 215, 216, 217, 223, 224, 225, 226, 227, 228, 229, 230, 231, 232, 233, 234, 238, 239, 240, 241, 242, 243, 244, 245, 246, 247, 251, 278, 279, 280, 281, 298, 299, 300, 301, 302, 307, 309, 310, 311, 312, 313, 314, 315, 316, 317, 318, 326, 327, 328, 332, 333, 334, 335, 336, 338, 339, 341, 344, 345}, {256, 257, 258, 259, 260, 261, 262, 263, 264, 265, 266, 267, 268, 269, 270, 271, 272, 273, 274, 275, 276, 277, 321, 322, 346, 99, 100, 101, 102, 103, 104, 105, 252, 253, 254, 255}, {17, 18, 19, 20, 21, 22, 23, 24, 25, 26, 27, 28, 29, 30, 31, 75, 76, 77, 78, 132, 168, 169, 170, 171, 172, 173, 174, 175, 176, 177, 178, 179, 180, 181, 182, 183, 184, 185, 186, 197, 198, 223, 224, 225, 226, 227, 228, 229, 230, 231, 238, 239, 240, 251, 278, 279, 280, 281, 298, 299, 300, 309, 310, 311, 312, 313, 314, 315, 316, 317, 318, 323, 324, 325, 332, 333, 334, 335, 344}, {15, 42, 43, 44, 45, 46, 47, 48, 49, 50, 51, 52, 53, 54, 55, 56, 57, 58, 59, 60, 61, 62, 63, 65, 75, 76, 77, 78, 126, 127, 128, 129, 130, 131, 146, 147, 148, 149, 168, 169, 170, 171, 172, 173, 174, 175, 176, 177, 178, 179, 185, 186, 187, 188, 189, 190, 197, 198, 208, 209, 210, 211, 212, 213, 223, 224, 225, 226, 227, 228, 229, 230, 231, 232, 233, 234, 235, 236, 238, 239, 240, 251, 278, 279, 280, 281, 298, 299, 300, 307, 309, 310, 311, 332, 333, 334, 340, 344}, {271, 272, 273, 274, 275, 276, 277, 282, 283, 284, 285, 286, 287, 288, 289, 321, 322, 252, 253}, {1, 2, 3, 4, 38, 39, 40, 41, 42, 43, 44, 45, 46, 47, 48, 49, 50, 51, 52, 53, 54, 55, 56, 57, 58, 59, 60, 61, 62, 63, 64, 65, 66, 67, 68, 69, 70, 71, 72, 73, 74, 75, 76, 77, 78, 79, 80, 81, 82, 83, 84, 85, 86, 87, 88, 89, 90, 91, 92, 93, 94, 112, 113, 114, 115, 116, 117, 118, 119, 120, 121, 122, 123, 124, 125, 126, 127, 128, 129, 130, 131, 133, 134, 135, 136, 137, 138, 139, 140, 141, 142, 143, 144, 145, 146, 147, 148, 149, 150, 151, 152, 153, 154, 155, 156, 157, 158, 159, 160, 199, 200, 201, 202, 203, 204, 205, 206, 207, 208, 209, 210, 211, 226, 227, 228, 229, 230, 231, 232, 233, 234, 235, 236, 237, 238, 239, 240, 241, 242, 243, 244, 245, 246, 247, 248, 249, 278, 301, 302, 303, 307, 309, 310, 311, 312, 313, 314, 315, 316, 317, 323, 324, 326, 327, 328, 329, 333, 334, 335, 338, 340, 341, 342, 344, 345}, {13, 14, 15, 16, 17, 18, 19, 20, 21, 22, 23, 24, 25, 50, 51, 52, 53, 54, 55, 56, 57, 58, 59, 60, 61, 62, 63, 64, 65, 66, 67, 75, 76, 77, 78, 79, 80, 81, 82, 83, 84, 85, 86, 118, 119, 120, 121, 122, 123, 124, 125, 126, 127, 128, 129, 130, 131, 139, 140, 141, 142, 143, 144, 145, 146, 147, 148, 149, 150, 151, 168, 169, 170, 171, 172, 173, 174, 175, 185, 186, 187, 188, 189, 190, 191, 192, 197, 198, 204, 205, 206, 207, 208, 209, 210, 211, 212, 213, 214, 215, 216, 217, 218, 219, 223, 224, 225, 226, 227, 228, 229, 238, 239, 240, 241, 242, 243, 244, 245, 246, 251, 278, 279, 280, 281, 300, 301, 302, 307, 336, 337}, {256, 257, 258, 259, 260, 261, 262, 263, 264, 265, 266, 276, 277, 282, 283, 293, 294, 295, 296, 297, 304, 305, 306, 319, 320, 321, 343, 349, 350, 351, 97, 98, 99, 100, 101, 102, 103, 104, 105, 106, 107, 108, 109, 252, 253, 254, 255}, {14, 15, 16, 17, 18, 19, 20, 21, 22, 23, 24, 25, 26, 27, 44, 45, 46, 47, 48, 49, 50, 51, 52, 53, 54, 55, 56, 57, 58, 59, 60, 61, 62, 63, 64, 65, 66, 67, 68, 69, 70, 71, 73, 75, 76, 77, 78, 79, 80, 81, 82, 83, 84, 85, 86, 87, 88, 89, 90, 114, 115, 116, 117, 118, 119, 120, 121, 122, 123, 124, 125, 126, 127, 128, 129, 130, 131, 136, 137, 138, 139, 140, 141, 142, 143, 144, 145, 146, 147, 148, 149, 150, 151, 152, 153, 154, 155, 156, 157, 158, 168, 169, 170, 171, 172, 173, 174, 175, 176, 177, 178, 179, 180, 181, 185, 186, 187, 188, 189, 190, 191, 192, 193, 194, 197, 198, 202, 203, 204, 205, 206, 207, 208, 209, 210, 211, 212, 213, 214, 215, 216, 217, 218, 219, 220, 221, 222, 223, 224, 225, 226, 227, 228, 229, 230, 231, 238, 239, 240, 241, 242, 243, 244, 245, 246, 247, 251, 278, 279, 280, 281, 298, 299, 300, 301, 302, 303, 307, 309, 310, 311, 312, 313, 327, 328, 329, 330, 332, 333, 334, 335, 336, 337, 339, 345}, {256, 257, 258, 259, 260, 261, 270, 271, 272, 273, 274, 275, 276, 277, 282, 283, 284, 285, 286, 287, 296, 297, 320, 321, 322, 343, 346, 347, 348, 350, 351, 252, 253, 254, 255}, {15, 16, 17, 18, 19, 20, 21, 22, 23, 24, 25, 26, 46, 47, 48, 49, 50, 51, 52, 53, 54, 55, 56, 57, 58, 59, 60, 61, 62, 63, 64, 65, 75, 76, 77, 78, 79, 80, 124, 125, 126, 127, 128, 129, 130, 131, 144, 145, 146, 147, 148, 149, 150, 151, 168, 169, 170, 171, 172, 173, 174, 175, 176, 177, 185, 186, 187, 188, 189, 190, 191, 197, 198, 207, 208, 209, 210, 211, 212, 213, 214, 215, 223, 224, 225, 226, 227, 228, 229, 230, 231, 232, 233, 238, 239, 240, 241, 242, 251, 278, 279, 280, 281, 299, 300, 301, 307, 309, 332, 333, 336, 337, 340, 341, 342, 345}, {256, 257, 258, 259, 274, 275, 276, 277, 282, 283, 284, 285, 292, 293, 294, 295, 296, 297, 308, 319, 320, 321, 322, 346, 348, 349, 350, 252, 253, 254, 255}, {108, 109, 110, 306, 349, 350, 351}];
costs = [526230, 307280, 513850, 16430, 420500, 479880, 345450, 298150, 144920, 3750, 32100, 323470, 930, 365870, 306660, 441870, 125766, 477660, 362110, 294420, 425190, 181260, 610200, 436230, 377370, 477760, 676800, 432090, 473598, 147600];
clouds = [{167, 329, 149, 214, 219}, {64, 143, 81, 122, 124}, {}, {193, 197, 7, 8, 9, 10, 11, 12, 13, 14, 15, 16, 17, 18, 185, 189}, {130, 12, 142, 146, 21, 279, 302, 307, 56, 187, 191, 192, 198, 199, 200, 202, 75, 204, 82, 226}, {}, {256, 321, 258, 99, 322, 101, 102, 262, 264, 267, 269, 270, 272, 274, 276, 346, 254}, {128, 129, 2, 3, 4, 5, 130, 131, 8, 9, 10, 11, 15, 16, 17, 147, 148, 149, 152, 153, 154, 156, 158, 159, 161, 162, 163, 165, 166, 167, 307, 185, 186, 187, 188, 190, 191, 193, 197, 329, 75, 76, 331, 208, 209, 210, 211, 336, 213, 337, 339, 218, 220, 222, 121, 122, 239, 241, 242, 115, 116, 117, 118, 244, 248, 246, 250, 124, 125}, {291, 292, 293, 255, 254, 286}, {198, 168, 18, 25, 27, 223}, {1, 74}, {139, 207, 115, 149, 125}, {}, {31, 32, 33, 34, 35, 36, 37, 38, 39, 40, 41, 42, 43, 44, 45, 46, 47, 48, 50, 51, 52, 53, 54, 55, 75, 76, 77, 79, 80, 81, 82, 84, 85, 86, 87, 88, 89, 92, 93, 94, 95, 96, 97, 98, 99, 100, 103, 130, 132, 133, 134, 202, 203, 204, 205, 228, 229, 230, 231, 232, 233, 234, 236, 237, 264, 265, 266, 267, 268, 304, 307, 312, 314, 316, 318, 323, 324, 325, 327, 340, 342, 344, 345}, {288, 292, 294, 295, 296, 297, 272, 255}, {11, 17, 18, 21, 22, 24, 36, 39, 40, 43, 45, 49, 50, 52, 54, 56, 57, 60, 61, 75, 76, 77, 78, 79, 80, 125, 126, 128, 129, 130, 131, 142, 143, 145, 146, 169, 170, 171, 172, 185, 186, 189, 190, 192, 193, 194, 195, 196, 197, 198, 206, 207, 208, 210, 211, 212, 216, 221, 222, 223, 224, 226, 228, 230, 231, 232, 233, 234, 237, 238, 242, 244, 278, 280, 302, 311, 313, 314, 325, 326, 328, 331, 332, 336, 340, 342}, {}, {}, {256, 257, 258, 259, 260, 261, 262, 263, 264, 265, 266, 267, 268, 269, 270, 271, 272, 273, 274, 275, 276, 277, 321, 322, 346, 99, 100, 101, 102, 103, 104, 105, 252, 253, 254, 255}, {}, {129, 131, 15, 146, 149, 278, 280, 168, 169, 298, 299, 44, 45, 172, 47, 173, 175, 50, 51, 177, 309, 53, 311, 54, 307, 56, 57, 185, 186, 60, 61, 62, 188, 189, 65, 76, 333, 211, 212, 213, 344, 223, 224, 225, 228, 300, 231, 234, 236, 239, 240, 251, 126, 127}, {321, 286}, {2, 4, 38, 39, 40, 41, 43, 45, 46, 47, 50, 53, 54, 55, 57, 59, 60, 61, 63, 64, 70, 71, 73, 74, 79, 80, 82, 84, 85, 89, 92, 93, 115, 116, 118, 119, 120, 121, 122, 123, 125, 127, 128, 129, 130, 131, 138, 139, 141, 142, 145, 151, 152, 153, 154, 155, 157, 158, 199, 202, 205, 206, 207, 208, 210, 211, 229, 230, 232, 233, 234, 235, 238, 239, 240, 241, 247, 249, 278, 301, 303, 307, 309, 310, 311, 312, 313, 316, 317, 323, 324, 326, 327, 328, 329, 333, 335, 344}, {25, 124, 209, 207}, {256, 260, 101, 104, 107, 304, 350, 351}, {14, 15, 179, 21, 118, 62, 121, 220, 158}, {256, 257, 258, 261, 271, 272, 275, 277, 282, 283, 284, 285, 297, 320, 321, 343, 346, 347, 348, 351, 252, 254}, {148, 20, 149, 24, 170, 301, 51, 52, 53, 58, 60, 62, 78, 211, 226, 230, 232, 233, 239, 241, 124}, {}, {}];
areas = [1937, 6899, 439, 7323, 8780, 3965, 1553, 153, 237, 1559, 982, 469, 0, 174, 92, 1236, 17, 320, 433, 175, 617, 20, 4, 40, 85, 30, 174, 228, 1004, 71011, 18570, 1940, 573, 83, 145, 63, 13, 17, 39, 99, 3762, 384, 1649, 7354, 276, 73, 193, 92, 274, 510, 50, 316, 8376, 3800, 825, 237, 1928, 169, 313, 27, 1553, 80, 760, 0, 200, 52, 4, 8, 54, 15, 1438, 87, 28796, 1992, 2023, 146, 4261, 11, 56, 137, 83, 147, 3, 395, 236, 34, 247, 462, 2, 728, 2376, 6352, 2582, 3745, 10, 306, 502, 4, 17, 1, 400, 0, 4394, 578, 266, 1926, 679, 1473, 101, 193, 801, 4472, 1473, 7534, 1199, 2387, 18861, 9795, 26871, 206, 226, 112, 470, 18, 245, 443, 2240, 239, 325, 17881, 646, 25357, 542, 63221, 131, 77, 38, 251, 724, 307, 81, 100, 1294, 0, 474, 58658, 653, 12250, 959, 27520, 33, 306, 874, 16399, 13562, 8392, 107, 117, 661, 272, 3, 243, 295, 1731, 1785, 3151, 32, 6612, 131, 4192, 35132, 2, 23, 65, 109, 1226, 166, 133, 301, 498, 910, 100, 37, 230, 73, 420, 0, 240, 269, 41, 35, 2215, 414, 0, 8, 475, 0, 6, 193, 3, 10672, 30469, 302, 894, 1455, 605, 1620, 4822, 68, 21306, 921, 650, 123, 550, 66, 2562, 811, 3084, 1215, 20947, 494, 1935, 8842, 848, 30741, 27215, 30165, 70415, 8657, 2634, 921, 7043, 280, 1645, 37, 251, 3, 1871, 35, 92, 5, 63, 39, 10794, 1181, 1784, 80, 116, 13, 39, 939, 28720, 2748, 160, 33, 133, 13, 631, 186, 735, 11068, 45, 1, 0, 37, 7532, 1435, 86, 87, 0, 35, 134, 39, 57, 1770, 446, 1949, 0, 14, 31, 4, 16, 48, 1754, 7580, 260, 91, 52138, 1812, 21312, 9004, 54423, 53265, 117325, 2546, 48149, 3540, 15083, 1343, 227, 10954, 904, 300, 453, 2303, 767, 13524, 72820, 169, 359, 565, 17120, 38096, 4018, 3083, 9248, 282, 4380, 82, 228, 3, 14, 247, 91, 143556, 3786, 14, 964, 5300, 283, 51, 4544, 308, 1406, 735, 4499, 19582, 87490, 1991, 4377, 1599, 74, 1276, 31007, 29410, 35083, 86836, 2362, 6725, 3373, 695];
max_cloud_area = 612361839;
resolution = [50, 50, 50, 50, 50, 31, 50, 50, 50, 50, 50, 50, 50, 50, 50, 50, 36, 50, 50, 50, 50, 50, 30, 50, 50, 50, 30, 50, 30, 30];
incidence_angle = [191, 145, 314, 174, 239, 91, 118, 156, 68, 39, 182, 141, 264, 155, 144, 189, 284, 260, 139, 118, 159, 204, 18, 186, 178, 258, 182, 204, 45, 84];
